
******************************************************************************
This program contains Ipopt, a library for large-scale nonlinear optimization.
 Ipopt is released as open source code under the Eclipse Public License (EPL).
         For more information visit http://projects.coin-or.org/Ipopt
******************************************************************************

This is Ipopt version 3.12.6, running with linear solver ma57.

Number of nonzeros in equality constraint Jacobian...:    10001
Number of nonzeros in inequality constraint Jacobian.:    40000
Number of nonzeros in Lagrangian Hessian.............:    10000

Total number of variables............................:    10001
                     variables with only lower bounds:        0
                variables with lower and upper bounds:        0
                     variables with only upper bounds:        0
Total number of equality constraints.................:        1
Total number of inequality constraints...............:    20000
        inequality constraints with only lower bounds:        0
   inequality constraints with lower and upper bounds:        0
        inequality constraints with only upper bounds:    20000

iter    objective    inf_pr   inf_du lg(mu)  ||d||  lg(rg) alpha_du alpha_pr  ls
   0  2.0002000e+08 1.20e+05 1.21e+01  -1.0 0.00e+00    -  0.00e+00 0.00e+00   0
   1  1.9977153e+08 1.20e+05 1.21e+01  -1.0 4.00e+04    -  2.39e-03 2.46e-03h  1
   2  9.9826291e+07 3.99e+04 4.63e+01  -1.0 3.99e+04    -  2.96e-03 1.00e+00f  1
   3  9.5649804e+07 3.70e+04 4.35e+01  -1.0 4.96e+00    -  5.18e-02 7.31e-02f  1
   4  4.1257728e+07 9.83e+03 5.25e+02  -1.0 2.87e+00   2.0 9.40e-03 1.00e+00f  1
   5  1.7441072e+07 2.52e+03 2.08e+02  -1.0 2.32e+00    -  6.47e-01 1.00e+00f  1
   6 -1.3802583e+06 1.11e+03 8.86e+01  -1.0 1.15e+00    -  8.31e-01 1.00e+00f  1
   7 -6.5517478e+07 1.31e+04 3.24e+01  -1.0 7.47e+00    -  2.17e-01 7.04e-01f  1
   8 -3.4169583e+07 3.70e+03 3.77e+01  -1.0 2.86e+00    -  2.34e-02 1.00e+00h  1
   9 -1.9697092e+07 1.32e+03 3.88e+01  -1.0 4.16e+00    -  7.35e-01 1.00e+00h  1
iter    objective    inf_pr   inf_du lg(mu)  ||d||  lg(rg) alpha_du alpha_pr  ls
  10 -1.2854113e+07 5.81e+02 4.52e+01  -1.0 8.08e+00    -  6.34e-01 1.00e+00h  1
  11 -8.3608073e+06 2.42e+02 4.04e+01  -1.0 4.13e+00    -  1.00e+00 1.00e+00h  1
  12 -5.1517709e+06 9.00e+01 3.67e+01  -1.0 6.12e+00    -  1.00e+00 1.00e+00h  1
  13 -3.1155522e+06 3.34e+01 3.73e+01  -1.0 1.55e+00    -  1.00e+00 1.00e+00h  1
  14 -1.9747912e+06 1.20e+01 3.71e+01  -1.0 2.21e+00    -  1.00e+00 1.00e+00h  1
  15 -1.3059839e+06 4.20e+00 3.25e+01  -1.0 4.73e-01    -  1.00e+00 1.00e+00h  1
  16 -9.8117703e+05 1.07e+00 2.00e+01  -1.0 6.46e-01    -  1.00e+00 1.00e+00h  1
  17 -8.4292739e+05 1.63e-01 6.00e+00  -1.0 1.03e-01    -  1.00e+00 1.00e+00h  1
  18 -8.2082441e+05 5.92e-03 3.67e-01  -1.0 4.62e-02    -  1.00e+00 1.00e+00h  1
  19 -9.4844943e+05 4.89e-02 2.39e+00  -1.7 6.42e-01    -  1.00e+00 1.00e+00f  1
iter    objective    inf_pr   inf_du lg(mu)  ||d||  lg(rg) alpha_du alpha_pr  ls
  20 -9.6051806e+05 4.37e-04 1.42e-02  -1.7 1.18e-01    -  1.00e+00 1.00e+00h  1
  21 -9.9058661e+05 2.79e-03 9.76e-02  -3.8 2.16e-01    -  1.00e+00 8.13e-01f  1
  22 -9.9062148e+05 2.73e-03 9.13e+00  -3.8 2.22e-02    -  1.00e+00 2.38e-02f  1
  23 -9.9075964e+05 1.59e-03 1.96e+00  -3.8 8.75e-03    -  1.00e+00 5.13e-01f  1
  24 -9.9067343e+05 4.56e-04 2.35e-01  -3.8 3.04e-03    -  1.00e+00 8.38e-01h  1
  25 -9.9067290e+05 4.53e-04 3.15e-01  -3.8 5.93e-04    -  1.00e+00 7.81e-03f  8
  26 -9.9060598e+05 1.52e-05 3.02e-04  -3.8 5.94e-04    -  1.00e+00 1.00e+00h  1
  27 -9.9061953e+05 9.07e-06 2.18e-02  -5.7 5.46e-04    -  1.00e+00 9.03e-01f  1
  28 -9.9061952e+05 9.00e-06 7.70e-02  -5.7 1.43e-04    -  1.00e+00 7.81e-03h  8
  29 -9.9061881e+05 9.67e-07 7.89e-06  -5.7 1.76e-04    -  1.00e+00 1.00e+00h  1
iter    objective    inf_pr   inf_du lg(mu)  ||d||  lg(rg) alpha_du alpha_pr  ls
  30 -9.9061882e+05 3.21e-08 1.85e-04  -8.6 4.68e-05    -  1.00e+00 9.94e-01h  1
  31 -9.9061882e+05 3.16e-08 1.72e-02  -8.6 2.20e-05    -  1.00e+00 1.56e-02h  7
  32 -9.9061882e+05 4.18e-09 9.95e-09  -8.6 2.89e-05    -  1.00e+00 1.00e+00h  1
  33 -9.9061882e+05 9.84e-11 1.93e-10  -8.6 7.12e-06    -  1.00e+00 1.00e+00h  1
  34 -9.9061882e+05 1.16e-11 2.36e-11  -8.6 3.44e-06    -  1.00e+00 1.00e+00h  1
  35 -9.9061882e+05 1.72e-12 2.32e-11  -9.0 1.78e-06    -  1.00e+00 1.00e+00h  1

Number of Iterations....: 35

                                   (scaled)                 (unscaled)
Objective...............:  -9.9061881581562593e+03   -9.9061881581562595e+05
Dual infeasibility......:   2.3192114895209670e-11    2.3192114895209670e-09
Constraint violation....:   1.7235825397129978e-12    1.7235825397129978e-12
Complementarity.........:   3.5410424539652652e-09    3.5410424539652653e-07
Overall NLP error.......:   3.5410424539652652e-09    3.5410424539652653e-07


Number of objective function evaluations             = 56
Number of objective gradient evaluations             = 36
Number of equality constraint evaluations            = 56
Number of inequality constraint evaluations          = 56
Number of equality constraint Jacobian evaluations   = 36
Number of inequality constraint Jacobian evaluations = 36
Number of Lagrangian Hessian evaluations             = 35
Total CPU secs in IPOPT (w/o function evaluations)   =      0.937
Total CPU secs in NLP function evaluations           =      0.193

EXIT: Optimal Solution Found.

************************ CUTEst statistics ************************


 Package used            :  IPOPT
 Problem                 :  ROSEPETAL2
 # variables             =           10001
 # constraints           =           20001
 # objective functions   =        0.9300000E+02
 # objective gradients   =        0.3700000E+02
 # objective Hessians    =        0.3600000E+02
 # Hessian-vector prdct  =        0.0000000E+00
 # constraints functions =        0.9400000E+02
 # constraints gradients =        0.3800000E+02
 # constraints Hessians  =        0.3600000E+02
 Exit code               =               0
 Final f                 =  -0.9906188E+06
 Set up time             =            0.29 seconds
 Solve time              =            3.15 seconds


******************************************************************

System Time =       0.7969999909 s.
